NAME : GeneratedFile
COMMENT : Example file generated by program
TYPE : TSP
DIMENSION : 375
EDGE_WEIGHT_TYPE : EUC_3D
NODE_COORD_SECTION
1 0 0 1
2 18.8288 -8.54801 0.95
3 18.8305 -7.54801 0.95
4 18.8323 -6.54802 0.95
5 18.8341 -5.54802 0.95
6 18.8358 -4.54802 0.95
7 18.8376 -3.54802 0.95
8 18.8394 -2.54802 0.95
9 18.8411 -1.54802 0.95
10 18.8429 -0.548025 0.95
11 18.8447 0.451974 0.95
12 18.8465 1.45197 0.95
13 18.8482 2.45197 0.95
14 6.55533 -8.78532 0.95
15 8.5553 -8.79535 0.95
16 9.55529 -8.80037 0.95
17 10.5553 -8.80538 0.95
18 11.5553 -8.8104 0.95
19 12.5553 -8.81541 0.95
20 13.5552 -8.82043 0.95
21 14.5552 -8.82544 0.95
22 15.5552 -8.83046 0.95
23 16.5552 -8.83547 0.95
24 17.5552 -8.84049 0.95
25 18.5552 -8.8455 0.95
26 18.5464 8.67485 0.95
27 17.5464 8.67765 0.95
28 16.5464 8.68044 0.95
29 15.5464 8.68323 0.95
30 14.5464 8.68603 0.95
31 13.5465 8.68882 0.95
32 12.5465 8.69162 0.95
33 11.5465 8.69441 0.95
34 10.5465 8.6972 0.95
35 9.54647 8.7 0.95
36 8.54647 8.70279 0.95
37 7.54648 8.70558 0.95
38 6.54648 8.70838 0.95
39 5.54648 8.71117 0.95
40 4.54649 8.71397 0.95
41 3.54649 8.71676 0.95
42 2.5465 8.71955 0.95
43 1.5465 8.72235 0.95
44 0.546504 8.72514 0.95
45 -0.453492 8.72794 0.95
46 -1.45349 8.73073 0.95
47 -2.45348 8.73352 0.95
48 -3.45348 8.73632 0.95
49 -4.45348 8.73911 0.95
50 -5.45347 8.7419 0.95
51 -6.45347 8.7447 0.95
52 -7.45346 8.74749 0.95
53 -8.45346 8.75029 0.95
54 -9.45346 8.75308 0.95
55 -10.4535 8.75587 0.95
56 -11.4534 8.75867 0.95
57 -12.4534 8.76146 0.95
58 18.7925 3.16055 0.95
59 18.8107 5.16046 0.95
60 18.8199 6.16042 0.95
61 18.829 7.16038 0.95
62 18.8382 8.16034 0.95
63 18.8473 9.16029 0.95
64 -18.65 8.44984 0.95
65 -18.6501 7.44984 0.95
66 -18.6502 6.44984 0.95
67 -18.6504 5.44984 0.95
68 -18.6505 4.44984 0.95
69 -18.6506 3.44984 0.95
70 -18.6507 2.44984 0.95
71 -18.6509 1.44984 0.95
72 -18.651 0.449835 0.95
73 -18.6511 -0.550165 0.95
74 -18.6513 -1.55016 0.95
75 -18.6514 -2.55016 0.95
76 -18.6515 -3.55016 0.95
77 -18.6516 -4.55016 0.95
78 -5.33738 -8.712 0.95
79 -3.33751 -8.73427 0.95
80 -2.33757 -8.7454 0.95
81 -1.33763 -8.75654 0.95
82 -0.337693 -8.76767 0.95
83 0.662245 -8.77881 0.95
84 1.66218 -8.78994 0.95
85 2.66212 -8.80108 0.95
86 3.66206 -8.81221 0.95
87 4.662 -8.82335 0.95
88 5.66193 -8.83448 0.95
89 6.66187 -8.84562 0.95
90 6.84208 -4.85718 0.95
91 7.84205 -4.84924 0.95
92 8.84202 -4.84129 0.95
93 9.84199 -4.83334 0.95
94 10.842 -4.8254 0.95
95 11.8419 -4.81745 0.95
96 12.8419 -4.8095 0.95
97 13.8419 -4.80156 0.95
98 14.8418 -4.79361 0.95
99 15.8418 -4.78566 0.95
100 16.5595 -7.13565 0.95
101 15.5595 -7.1436 0.95
102 14.5595 -7.15155 0.95
103 13.5595 -7.15949 0.95
104 12.5596 -7.16744 0.95
105 11.5596 -7.17539 0.95
106 10.5596 -7.18333 0.95
107 9.55967 -7.19128 0.95
108 8.5597 -7.19923 0.95
109 14.2377 -3.81045 0.95
110 14.2942 -1.81125 0.95
111 14.3224 -0.811648 0.95
112 14.3507 0.187953 0.95
113 16.7625 1.0161 0.95
114 16.7342 0.0164965 0.95
115 16.706 -0.983104 0.95
116 16.6777 -1.98271 0.95
117 16.6495 -2.98231 0.95
118 -15.8402 -8.73679 0.95
119 -13.8403 -8.75446 0.95
120 -12.8403 -8.7633 0.95
121 -11.8404 -8.77214 0.95
122 -10.8404 -8.78097 0.95
123 -9.84043 -8.78981 0.95
124 -8.84047 -8.79864 0.95
125 -7.84051 -8.80748 0.95
126 -6.84055 -8.81632 0.95
127 -5.84059 -8.82515 0.95
128 -15.1687 8.73357 0.95
129 -16.1685 8.75017 0.95
130 -17.1684 8.76677 0.95
131 -18.1683 8.78337 0.95
132 -18.7008 -4.67348 0.95
133 -18.742 -6.67306 0.95
134 -18.7626 -7.67284 0.95
135 -18.7832 -8.67263 0.95
136 -18.7504 -8.8496 0.95
137 -17.7504 -8.84924 0.95
138 -16.7504 -8.84888 0.95
139 -15.7504 -8.84852 0.95
140 9.77465 -3.86115 0.95
141 9.76519 -2.8612 0.95
142 9.75574 -1.86124 0.95
143 9.74628 -0.861289 0.95
144 9.73682 0.138666 0.95
145 9.72737 1.13862 0.95
146 9.71791 2.13858 0.95
147 9.70846 3.13853 0.95
148 9.699 4.13849 0.95
149 12.1348 4.66219 0.95
150 12.1537 2.66228 0.95
151 12.1632 1.66232 0.95
152 12.1726 0.662369 0.95
153 12.1821 -0.337587 0.95
154 12.1915 -1.33754 0.95
155 12.201 -2.3375 0.95
156 10.1334 -1.86555 0.95
157 12.1333 -1.83985 0.95
158 13.1332 -1.827 0.95
159 14.1331 -1.81416 0.95
160 16.3637 -4.11393 0.95
161 15.3638 -4.12678 0.95
162 14.3639 -4.13962 0.95
163 13.364 -4.15247 0.95
164 12.3641 -4.16532 0.95
165 11.3642 -4.17817 0.95
166 10.3642 -4.19102 0.95
167 8.04988 5.34898 0.95
168 7.04988 5.34908 0.95
169 6.04988 5.34919 0.95
170 5.04988 5.34929 0.95
171 4.04988 5.3494 0.95
172 3.04988 5.3495 0.95
173 1.04988 5.34972 0.95
174 0.0498841 5.34982 0.95
175 -0.950116 5.34993 0.95
176 -1.95012 5.35003 0.95
177 -2.95012 5.35014 0.95
178 -3.04988 7.65101 0.95
179 -2.04988 7.65091 0.95
180 -1.04988 7.6508 0.95
181 -0.0498838 7.6507 0.95
182 0.950116 7.65059 0.95
183 1.95012 7.65049 0.95
184 2.95012 7.65038 0.95
185 3.95012 7.65027 0.95
186 4.95012 7.65017 0.95
187 5.95012 7.65006 0.95
188 6.95012 7.64996 0.95
189 7.95012 7.64985 0.95
190 18.5558 2.84568 0.95
191 17.5558 2.84086 0.95
192 16.5558 2.83605 0.95
193 15.5558 2.83123 0.95
194 14.5558 2.82641 0.95
195 13.5558 2.8216 0.95
196 12.5559 2.81678 0.95
197 10.2448 5.23313 0.95
198 11.2448 5.23794 0.95
199 12.2447 5.24276 0.95
200 13.2447 5.24758 0.95
201 14.2447 5.25239 0.95
202 15.2447 5.25721 0.95
203 16.2447 5.26203 0.95
204 17.2447 5.26684 0.95
205 18.2447 5.27166 0.95
206 19.2447 5.27648 0.95
207 6.35123 -2.05164 0.95
208 6.34986 -1.05164 0.95
209 6.34577 1.94836 0.95
210 6.34441 2.94836 0.95
211 8.6485 3.05177 0.95
212 8.64986 2.05177 0.95
213 8.65123 1.05177 0.95
214 8.65259 0.051775 0.95
215 8.65395 -0.948224 0.95
216 8.65532 -1.94822 0.95
217 -18.6438 -4.13331 0.95
218 -17.6438 -4.13771 0.95
219 -16.6438 -4.1421 0.95
220 -15.6438 -4.1465 0.95
221 -14.6438 -4.1509 0.95
222 -13.6438 -4.15529 0.95
223 -12.6438 -4.15969 0.95
224 -11.6438 -4.16409 0.95
225 -10.6438 -4.16848 0.95
226 -9.64385 -4.17288 0.95
227 -8.64386 -4.17727 0.95
228 -8.55544 -6.78867 0.95
229 -9.55543 -6.78428 0.95
230 -10.5554 -6.77988 0.95
231 -11.5554 -6.77548 0.95
232 -12.5554 -6.77109 0.95
233 -13.5554 -6.76669 0.95
234 -14.5554 -6.7623 0.95
235 -15.5554 -6.7579 0.95
236 -16.5554 -6.7535 0.95
237 -17.5553 -6.74911 0.95
238 -18.5553 -6.74471 0.95
239 6.24211 -8.64437 0.95
240 6.24676 -7.64438 0.95
241 6.25141 -6.64439 0.95
242 6.25606 -5.6444 0.95
243 8.66022 -7.35611 0.95
244 8.65557 -8.3561 0.95
245 0.600161 -6.34109 0.95
246 0.618633 -3.34115 0.95
247 0.62479 -2.34117 0.95
248 0.630947 -1.34118 0.95
249 0.637105 -0.341203 0.95
250 0.643262 0.658778 0.95
251 0.649419 1.65876 0.95
252 0.655576 2.65874 0.95
253 0.661734 3.65872 0.95
254 0.667891 4.6587 0.95
255 0.674048 5.65868 0.95
256 3.28692 5.04236 0.95
257 3.28076 4.04238 0.95
258 3.2746 3.0424 0.95
259 3.26844 2.04242 0.95
260 3.26229 1.04244 0.95
261 3.25613 0.042458 0.95
262 3.24997 -0.957523 0.95
263 3.24382 -1.9575 0.95
264 3.23766 -2.95749 0.95
265 3.2315 -3.95747 0.95
266 3.22534 -4.95745 0.95
267 3.21919 -5.95743 0.95
268 -6.20878 0.552125 0.95
269 -5.33149 0.0721543 0.95
270 -4.45421 -0.407817 0.95
271 -3.57692 -0.887788 0.95
272 -2.69964 -1.36776 0.95
273 -1.82235 -1.84773 0.95
274 -0.94507 -2.3277 0.95
275 -0.0677857 -2.80767 0.95
276 0.809499 -3.28764 0.95
277 3.44135 -4.72756 0.95
278 2.18574 -6.89423 0.95
279 1.30845 -6.41426 0.95
280 0.43117 -5.93429 0.95
281 -0.446114 -5.45432 0.95
282 -1.3234 -4.97435 0.95
283 -2.20068 -4.49438 0.95
284 -3.07797 -4.01441 0.95
285 -3.95525 -3.53444 0.95
286 -4.83254 -3.05446 0.95
287 -5.70982 -2.57449 0.95
288 -6.5871 -2.09452 0.95
289 -12.7519 8.6389 0.95
290 -12.7611 7.63894 0.95
291 -12.7704 6.63898 0.95
292 -12.7796 5.63903 0.95
293 -12.7888 4.63907 0.95
294 -15.3776 2.16037 0.95
295 -15.3684 3.16032 0.95
296 -15.3592 4.16028 0.95
297 -15.3499 5.16024 0.95
298 -15.3407 6.1602 0.95
299 -15.3315 7.16015 0.95
300 -15.3223 8.16011 0.95
301 -5.35188 -8.93416 0.95
302 5.11874 1.28498 0.95
303 6.07409 1.58047 0.95
304 8.4181 -0.180796 0.95
305 6.50741 -0.771774 0.95
306 -4.94786 1.85195 0.95
307 -5.94786 1.85 0.95
308 -6.94785 1.84805 0.95
309 -7.94785 1.8461 0.95
310 -8.94785 1.84415 0.95
311 -9.94785 1.8422 0.95
312 -10.9478 1.84025 0.95
313 -11.9478 1.8383 0.95
314 -12.9478 1.83635 0.95
315 -13.9478 1.8344 0.95
316 -14.9478 1.83245 0.95
317 -14.8527 4.24122 0.95
318 -12.8527 4.24512 0.95
319 -11.8527 4.24707 0.95
320 -10.8527 4.24902 0.95
321 -9.85272 4.25097 0.95
322 -8.85273 4.25292 0.95
323 -7.85273 4.25487 0.95
324 -4.85273 4.26072 0.95
325 -13.848 -7.4511 0.95
326 -13.849 -8.4511 0.95
327 -16.15 -8.5489 0.95
328 -16.149 -7.5489 0.95
329 -7.4235 8.00586 0.95
330 -6.92505 7.13894 0.95
331 -6.42661 6.27201 0.95
332 -5.92817 5.40509 0.95
333 -5.42973 4.53817 0.95
334 -4.93129 3.67124 0.95
335 -4.43285 2.80432 0.95
336 -6.6174 1.51313 0.95
337 -8.11273 4.1139 0.95
338 -8.61117 4.98082 0.95
339 -9.10961 5.84774 0.95
340 -9.60805 6.71467 0.95
341 -3.28633 -4.4379 0.95
342 -3.27749 -5.43786 0.95
343 -3.26864 -6.43783 0.95
344 -3.2598 -7.43779 0.95
345 -3.25095 -8.43775 0.95
346 -5.73933 -8.66048 0.95
347 -5.74818 -7.66051 0.95
348 -5.75702 -6.66055 0.95
349 -5.76587 -5.66059 0.95
350 -5.77471 -4.66063 0.95
351 -14.9655 0.75133 0.95
352 -13.9665 0.706474 0.95
353 -12.9675 0.661617 0.95
354 -11.9686 0.616761 0.95
355 -10.9696 0.571904 0.95
356 -9.97057 0.527048 0.95
357 -8.97157 0.482191 0.95
358 -7.97258 0.437335 0.95
359 -6.97359 0.392478 0.95
360 -5.97459 0.347622 0.95
361 -5.2255 -2.65173 0.95
362 -6.2245 -2.60688 0.95
363 -7.22349 -2.56202 0.95
364 -8.22248 -2.51716 0.95
365 -9.22148 -2.47231 0.95
366 -10.2205 -2.42745 0.95
367 -11.2195 -2.38259 0.95
368 -12.2185 -2.33774 0.95
369 -13.2175 -2.29288 0.95
370 -14.2164 -2.24802 0.95
371 -19.0867 -3.94211 1.05
372 6.43155 -5.22729 1.05
373 7.37194 -4.88717 1.05
374 8.31232 -4.54705 1.05
375 9.13646 -6.78428 1.05
