NAME : GeneratedFile.350.tour
COMMENT : Length = 350
COMMENT : Found by LKH [Keld Helsgaun] Mon Mar 17 01:52:31 2025
TYPE : TOUR
DIMENSION : 375
TOUR_SECTION
1
249
248
247
246
276
275
274
273
272
271
270
269
268
360
359
358
357
356
355
354
353
370
369
368
367
366
365
364
363
362
288
287
361
286
285
284
341
350
349
348
347
78
301
346
127
126
125
124
123
122
121
120
326
119
325
118
327
139
328
138
137
136
135
134
133
238
237
236
235
234
233
232
231
230
229
228
227
226
225
224
223
222
221
220
219
218
76
132
77
217
371
75
74
73
72
71
70
69
68
67
66
65
64
131
130
129
128
300
299
298
297
296
317
295
316
294
351
352
315
314
313
312
311
310
309
336
308
307
306
335
334
324
333
332
331
330
329
53
340
339
338
323
337
322
321
320
319
318
293
292
291
290
289
57
56
55
54
52
51
50
49
48
178
47
46
45
44
43
42
41
40
39
38
37
36
35
34
33
32
31
30
29
28
27
63
26
62
61
60
59
206
205
204
203
202
201
200
149
199
198
197
148
147
211
210
209
303
302
305
208
207
216
215
304
214
213
212
146
145
144
143
142
156
141
166
165
164
163
162
109
161
160
117
116
115
113
114
112
111
110
159
158
157
155
154
153
152
151
196
150
195
194
193
192
191
58
190
13
12
11
10
9
8
7
6
5
4
3
2
25
24
23
22
21
20
19
18
17
16
15
244
243
108
375
107
106
105
104
103
102
101
100
99
98
97
96
95
94
93
140
92
374
373
91
90
372
242
241
240
14
89
239
88
87
86
85
84
83
82
81
80
79
345
344
343
342
283
282
281
245
280
279
278
267
277
266
265
264
263
262
261
260
259
258
257
172
256
171
170
169
168
167
189
188
187
186
185
184
183
182
181
180
179
177
176
175
174
173
255
254
253
252
251
250
-1
EOF
